32      4       
17      18      20      14      
0       0       0       0       0       3       2       3       4       
10      1       1       5       1       3       8       6       5       
5       5       1       2       1       2       6       5       
4       1       8       14      1       2       8       5       
8       5       1       2       1       1       7       
7       1       1       6       7       1       7       
4       4       4       3       3       2       10      9       
5       9       1       1       1       2       10      9       
4       6       18      2       1       3       14      13      11      
5       4       9       1       1       3       14      12      11      
4       7       1       1       3       2       16      15      
10      6       1       1       7       2       16      15      
6       1       1       1       1       2       16      15      
3       1       6       1       6       1       15      
7       5       1       4       1       2       20      17      
2       5       12      1       7       2       20      18      
7       3       7       10      1       1       18      
3       1       1       4       5       1       19      
5       6       1       17      6       2       22      21      
6       5       1       1       11      1       21      
3       1       1       12      3       2       24      23      
1       5       13      1       8       1       23      
1       3       8       1       2       2       28      26      
1       7       5       17      6       1       25      
7       1       1       4       8       2       28      27      
6       3       1       10      4       1       27      
2       8       4       1       4       2       30      29      
5       11      14      12      2       2       30      29      
2       1       4       1       1       1       31      
8       8       1       13      1       1       31      
2       4       7       1       1       1       32      
0       0       0       0       0       0       
